N = 7;
H = 6;
T = 2;

avail = array3d(1..N, 1..H, 1..T, [2, 4, 2, 7, 1, 1, 5, 0, 10, 10, 1, 4, 3, 2, 5, 5, 3, 1, 0, 2, 4, 8, 10, 7, 0, 1, 9, 0, 1, 1, 8, 6, 6, 3, 8, 3, 4, 2, 0, 1, 7, 7, 2, 6, 0, 8, 7, 0, 5, 9, 7, 1, 8, 2, 3, 1, 10, 9, 9, 8, 8, 5, 5, 1, 3, 9, 9, 8, 9, 8, 4, 8, 4, 5, 10, 2, 6, 7, 2, 10, 3, 1, 8, 1]);

r = array2d(1..H, 1..T, [2, 3, 2, 1, 2, 2, 1, 0, 2, 3, 2, 3]);
